(set-logic UF)
(declare-sort Loc 0)
(declare-sort SetLoc 0)
(declare-sort FldBool 0)
(declare-sort FldLoc 0)
(declare-fun null$0 () Loc)
(declare-fun read$0 (FldLoc Loc) Loc)
(declare-fun emptyset$0 () SetLoc)
(declare-fun setenum$0 (Loc) SetLoc)
(declare-fun union$0 (SetLoc SetLoc) SetLoc)
(declare-fun intersection$0 (SetLoc SetLoc) SetLoc)
(declare-fun setminus$0 (SetLoc SetLoc) SetLoc)
(declare-fun Btwn$0 (FldLoc Loc Loc Loc) Bool)
(declare-fun in$0 (Loc SetLoc) Bool)
(declare-fun Alloc$0 () SetLoc)
(declare-fun Axiom_32$0 () Bool)
(declare-fun Axiom_33$0 () Bool)
(declare-fun FP$0 () SetLoc)
(declare-fun FP_Caller$0 () SetLoc)
(declare-fun FP_Caller_2$0 () SetLoc)
(declare-fun c_6$0 () Loc)
(declare-fun c_init$0 () Loc)
(declare-fun curr_4$0 () Loc)
(declare-fun curr_init$0 () Loc)
(declare-fun d_5$0 () Loc)
(declare-fun d_init$0 () Loc)
(declare-fun dlseg_domain$0 (FldLoc FldLoc Loc Loc Loc Loc) SetLoc)
(declare-fun dlseg_struct$0 (SetLoc FldLoc FldLoc Loc Loc Loc Loc) Bool)
(declare-fun next$0 () FldLoc)
(declare-fun nondet_3$0 () Bool)
(declare-fun nondet_init$0 () Bool)
(declare-fun prev$0 () FldLoc)
(declare-fun prv_4$0 () Loc)
(declare-fun prv_5$0 () Loc)
(declare-fun prv_init$0 () Loc)
(declare-fun sk_?X_91$0 () SetLoc)
(declare-fun sk_?X_92$0 () SetLoc)
(declare-fun sk_?X_93$0 () SetLoc)
(declare-fun sk_?X_94$0 () SetLoc)
(assert (not (= prv_init$0 prv_init$0)))
(check-sat)
(exit)
